NAME : random50.578.tour
COMMENT : Length = 578
COMMENT : Found by LKH [Keld Helsgaun] Thu Sep 26 17:24:19 2024
TYPE : TOUR
DIMENSION : 50
TOUR_SECTION
1
20
5
10
17
22
39
18
25
50
35
28
24
13
30
42
14
31
40
41
37
29
26
47
45
4
9
15
7
3
34
36
21
44
38
43
23
16
33
12
8
19
46
11
49
32
48
2
6
27
-1
EOF
